(set-info :smt-lib-version 2.6)
(set-logic QF_UFLRA)
(set-info :source |
MathSat group

|)
(set-info :category "random")
(set-info :status sat)
(declare-fun f0_1 (Real) Real)
(declare-fun f0_2 (Real Real) Real)
(declare-fun f0_3 (Real Real Real) Real)
(declare-fun f0_4 (Real Real Real Real) Real)
(declare-fun f1_1 (Real) Real)
(declare-fun f1_2 (Real Real) Real)
(declare-fun f1_3 (Real Real Real) Real)
(declare-fun f1_4 (Real Real Real Real) Real)
(declare-fun x0 () Real)
(declare-fun x1 () Real)
(declare-fun x2 () Real)
(declare-fun x3 () Real)
(declare-fun x4 () Real)
(declare-fun x5 () Real)
(declare-fun x6 () Real)
(declare-fun x7 () Real)
(declare-fun x8 () Real)
(declare-fun x9 () Real)
(declare-fun P0 () Bool)
(declare-fun P1 () Bool)
(declare-fun P2 () Bool)
(declare-fun P3 () Bool)
(declare-fun P4 () Bool)
(declare-fun P5 () Bool)
(declare-fun P6 () Bool)
(declare-fun P7 () Bool)
(declare-fun P8 () Bool)
(declare-fun P9 () Bool)
(assert (let ((?v_0 (f1_1 x4)) (?v_11 (f0_1 x7)) (?v_59 (f1_2 x8 x8))) (let ((?v_10 (f1_2 ?v_0 x3)) (?v_48 (f0_2 x7 x9)) (?v_15 (f0_2 x5 x5)) (?v_14 (f1_2 x9 x0)) (?v_31 (f0_1 x5)) (?v_5 (+ (- (* 13 x6) (* 27 x1)) (* 4 x7))) (?v_16 (f0_1 x8)) (?v_9 (f1_2 x0 x7)) (?v_27 (f1_1 x9)) (?v_28 (f1_2 x7 x4))) (let ((?v_21 (f1_2 ?v_27 ?v_10)) (?v_26 (f0_2 x1 x7)) (?v_46 (f1_1 x3))) (let ((?v_121 (= ?v_21 ?v_9)) (?v_92 (< ?v_31 26)) (?v_37 (< (f1_2 x0 x9) 0)) (?v_71 (< x5 0)) (?v_23 (< ?v_15 28)) (?v_76 (< ?v_11 11)) (?v_22 (< ?v_21 6)) (?v_61 (< ?v_26 19)) (?v_114 (= ?v_15 ?v_11)) (?v_62 (< ?v_59 6)) (?v_106 (< x0 18)) (?v_1 (< x8 28)) (?v_45 (< ?v_5 21)) (?v_30 (< ?v_9 12)) (?v_63 (= ?v_9 ?v_5)) (?v_40 (< ?v_26 15)) (?v_99 (< ?v_28 8)) (?v_84 (< ?v_59 13)) (?v_65 (< ?v_14 19)) (?v_88 (< ?v_0 13)) (?v_32 (= ?v_9 ?v_21)) (?v_119 (< x1 21)) (?v_44 (< (f0_2 x0 x0) 28)) (?v_3 (= x3 ?v_16)) (?v_110 (not P8))) (let ((?v_36 (not ?v_1)) (?v_7 (not P2)) (?v_13 (not P3)) (?v_24 (not ?v_106)) (?v_79 (not ?v_37)) (?v_55 (not ?v_3)) (?v_34 (not P7)) (?v_57 (not ?v_32)) (?v_64 (not ?v_114)) (?v_51 (not P9)) (?v_98 (not ?v_61)) (?v_43 (not ?v_23)) (?v_80 (not ?v_121)) (?v_102 (not ?v_99)) (?v_82 (not ?v_88)) (?v_73 (not ?v_65)) (?v_66 (not ?v_22)) (?v_89 (not ?v_71)) (?v_52 (not ?v_44)) (?v_97 (not ?v_30)) (?v_85 (not ?v_62)) (?v_109 (not ?v_45)) (?v_103 (not ?v_76)) (?v_96 (not P4)) (?v_87 (not ?v_84)) (?v_107 (not ?v_63)) (?v_108 (not P0)) (?v_111 (not ?v_40)) (?v_104 (not ?v_92)) (?v_120 (not ?v_119)) (?v_6 (+ (* 25 ?v_28) (* 20 x2) (* 23 ?v_5)))) (let ((?v_75 (= ?v_46 ?v_6))) (let ((?v_33 (not ?v_75)) (?v_49 (< (+ (* 20 (f1_2 x5 x7)) (* 4 (f1_2 ?v_14 ?v_31)) (* 22 ?v_15)) 18)) (?v_53 (< ?v_6 21))) (let ((?v_122 (not ?v_53)) (?v_50 (< (+ (- (* (- 19) x2) (* 15 ?v_0)) (* 12 x4)) 2))) (let ((?v_4 (not ?v_50)) (?v_39 (- (- (* (- 6) x7) (* 5 x6)) (* 9 x2)))) (let ((?v_25 (< (+ (* (- 13) ?v_39) (* 22 ?v_14) (* 9 x6)) 0)) (?v_58 (< ?v_5 (- 13))) (?v_18 (+ (* (- 4) x7) (* 6 x7) (* 2 x1)))) (let ((?v_2 (< ?v_18 16)) (?v_35 (< ?v_10 (- 23)))) (let ((?v_113 (not ?v_35)) (?v_12 (< x0 (- 9))) (?v_42 (not ?v_2)) (?v_19 (< ?v_48 (- 10))) (?v_54 (+ (* (- 10) x7) (* 23 x1) (* 4 x4)))) (let ((?v_8 (< ?v_54 (- 29))) (?v_17 (< ?v_6 (- 13)))) (let ((?v_100 (not ?v_17)) (?v_95 (< ?v_11 (- 6)))) (let ((?v_101 (not ?v_95)) (?v_86 (not ?v_12)) (?v_78 (< ?v_16 (- 6))) (?v_20 (< ?v_18 (- 1)))) (let ((?v_116 (not ?v_20)) (?v_56 (= ?v_5 (- (- (* (- 22) x3) (* 6 x9)) (* 14 x6))))) (let ((?v_41 (not ?v_56)) (?v_69 (not ?v_19)) (?v_67 (< x0 (- 3)))) (let ((?v_38 (not ?v_67)) (?v_93 (not ?v_25)) (?v_47 (< ?v_27 (- 7)))) (let ((?v_29 (not ?v_47)) (?v_117 (= ?v_18 ?v_11))) (let ((?v_60 (not ?v_117)) (?v_81 (< ?v_27 (- 26))) (?v_72 (< ?v_39 (- 10)))) (let ((?v_70 (not ?v_72)) (?v_90 (< ?v_46 (- 12))) (?v_68 (< ?v_48 (- 7)))) (let ((?v_83 (not ?v_68)) (?v_74 (= ?v_18 ?v_54)) (?v_77 (not ?v_58))) (let ((?v_91 (not ?v_74)) (?v_105 (< (f1_1 x5) (- 29)))) (let ((?v_118 (not ?v_105)) (?v_94 (not ?v_90)) (?v_115 (< x6 (- 19))) (?v_112 (not ?v_78))) (and (and (and (and (and (and (and (and (and (and (and (and (and (and (and (and (and (and (and (and (and (and (and (and (and (and (and (and (and (and (and (and (and (and (and (and (and (and (and (and (and (and (and (and (and (and (and (and (and (and (and (and (and (and (and (and (and (and (and (and (and (and (and (and (and (and (and (and (and (and (and (and (and (and (and (and (and (and (and (and (and (and (and (and (and (and (and (and (and (and (and (and (and (and (and (and (and (and (and (and (and (and (and (and (and (and (and (and (and (and (and (and (and (and (and (and (and (and (and (and (and (and (and (and (and (and (and (and (and (and (and (and (and (and (and (and (and (and (and (and (and (and (and (and (and (and (and (and (and (or (or ?v_110 ?v_4) ?v_25) (or (or ?v_58 ?v_1) ?v_2)) (or (or ?v_113 ?v_36) ?v_7)) (or (or ?v_2 ?v_13) P0)) (or (or ?v_12 ?v_24) ?v_42)) (or (or ?v_79 ?v_3) P1)) (or (or ?v_55 ?v_19) ?v_8)) (or (or ?v_30 ?v_4) ?v_100)) (or (or ?v_33 P4) ?v_7)) (or (or ?v_34 ?v_101) ?v_1)) (or (or ?v_8 ?v_57) ?v_64)) (or (or ?v_86 ?v_13) ?v_49)) (or (or ?v_2 ?v_78) ?v_51)) (or (or ?v_17 ?v_98) ?v_116)) (or (or ?v_41 ?v_69) ?v_38)) (or (or ?v_23 ?v_20) ?v_22)) (or (or ?v_22 ?v_43) ?v_80)) (or (or ?v_45 ?v_44) ?v_24)) (or (or ?v_93 ?v_40) ?v_29)) (or (or ?v_102 ?v_17) ?v_20)) (or (or ?v_82 ?v_22) ?v_60)) (or (or ?v_29 ?v_30) ?v_92)) (or (or ?v_32 (not P1)) ?v_12)) (or (or P8 ?v_33) ?v_73)) (or (or P1 ?v_34) ?v_35)) (or (or ?v_36 ?v_66) ?v_122)) (or (or ?v_89 ?v_30) ?v_37)) (or (or ?v_22 ?v_81) ?v_38)) (or (or ?v_70 ?v_35) ?v_2)) (or (or ?v_40 ?v_41) ?v_42)) (or (or ?v_43 ?v_35) ?v_52)) (or (or ?v_1 ?v_45) ?v_12)) (or (or ?v_13 ?v_33) ?v_90)) (or (or ?v_47 ?v_76) ?v_83)) (or (or ?v_13 ?v_7) ?v_49)) (or (or ?v_50 ?v_51) ?v_42)) (or (or ?v_13 ?v_84) ?v_52)) (or (or ?v_47 ?v_53) P4)) (or (or ?v_29 ?v_17) P1)) (or (or ?v_74 ?v_97) ?v_55)) (or (or ?v_56 ?v_57) ?v_47)) (or (or (not P5) ?v_19) ?v_58)) (or (or ?v_63 ?v_12) ?v_40)) (or (or ?v_62 ?v_25) ?v_60)) (or (or ?v_3 ?v_61) ?v_85)) (or (or ?v_63 ?v_64) ?v_65)) (or (or ?v_66 P6) ?v_67)) (or (or P1 ?v_68) P6)) (or (or P4 P2) ?v_109)) (or (or ?v_69 P1) ?v_35)) (or (or ?v_70 ?v_44) ?v_19)) (or (or ?v_77 ?v_71) ?v_72)) (or (or ?v_45 ?v_73) ?v_60)) (or (or P2 (not ?v_49)) ?v_91)) (or (or (not P6) ?v_13) P2)) (or (or ?v_1 ?v_22) ?v_75)) (or (or ?v_37 ?v_103) ?v_77)) (or (or ?v_63 P6) ?v_52)) (or (or ?v_78 ?v_79) ?v_32)) (or (or ?v_80 ?v_96) ?v_3)) (or (or ?v_81 ?v_25) ?v_80)) (or (or ?v_34 ?v_37) ?v_62)) (or (or ?v_82 ?v_83) ?v_67)) (or (or ?v_43 P7) ?v_119)) (or (or ?v_87 ?v_85) ?v_57)) (or (or ?v_86 ?v_87) ?v_88)) (or (or ?v_70 ?v_56) P5)) (or (or ?v_107 P2) ?v_79)) (or (or ?v_84 ?v_118) ?v_4)) (or (or ?v_83 P6) ?v_37)) (or (or ?v_89 ?v_60) ?v_94)) (or (or ?v_38 P1) ?v_22)) (or (or ?v_64 ?v_55) ?v_91)) (or (or ?v_92 ?v_93) ?v_20)) (or (or P8 ?v_94) ?v_84)) (or (or ?v_95 ?v_19) ?v_83)) (or (or ?v_20 ?v_96) ?v_77)) (or (or ?v_97 ?v_68) ?v_36)) (or (or ?v_63 P4) ?v_45)) (or (or ?v_84 ?v_72) ?v_98)) (or (or ?v_95 ?v_43) ?v_99)) (or (or ?v_108 ?v_100) ?v_111)) (or (or ?v_104 ?v_94) ?v_101)) (or (or ?v_115 ?v_55) ?v_29)) (or (or ?v_60 ?v_2) ?v_63)) (or (or ?v_41 ?v_102) ?v_73)) (or (or ?v_103 ?v_104) ?v_23)) (or (or P8 ?v_23) ?v_83)) (or (or ?v_105 ?v_93) ?v_20)) (or (or ?v_106 ?v_91) ?v_107)) (or (or ?v_49 ?v_7) ?v_50)) (or (or ?v_72 ?v_78) ?v_65)) (or (or P6 ?v_102) ?v_108)) (or (or ?v_44 ?v_109) ?v_91)) (or (or ?v_42 ?v_110) ?v_79)) (or (or ?v_111 ?v_45) ?v_42)) (or (or ?v_82 ?v_112) ?v_92)) (or (or ?v_3 ?v_41) P2)) (or (or ?v_112 ?v_83) ?v_110)) (or (or ?v_19 ?v_61) ?v_90)) (or (or ?v_112 ?v_32) ?v_90)) (or (or ?v_47 ?v_43) P8)) (or (or ?v_36 ?v_22) ?v_70)) (or (or ?v_22 ?v_29) ?v_61)) (or (or ?v_113 ?v_105) ?v_61)) (or (or ?v_74 ?v_98) ?v_37)) (or (or ?v_44 ?v_86) ?v_8)) (or (or ?v_12 ?v_114) ?v_56)) (or (or ?v_61 ?v_25) ?v_99)) (or (or ?v_49 P2) ?v_66)) (or (or ?v_69 ?v_72) P1)) (or (or ?v_85 ?v_115) ?v_93)) (or (or ?v_44 ?v_25) ?v_87)) (or (or ?v_82 ?v_82) ?v_89)) (or (or ?v_83 ?v_101) ?v_106)) (or (or ?v_98 ?v_70) ?v_71)) (or (or ?v_13 ?v_47) ?v_66)) (or (or ?v_51 ?v_57) ?v_7)) (or (or ?v_52 ?v_116) ?v_55)) (or (or ?v_117 ?v_94) ?v_95)) (or (or ?v_79 (not ?v_81)) ?v_76)) (or (or ?v_42 ?v_90) ?v_108)) (or (or ?v_85 ?v_24) ?v_20)) (or (or ?v_52 ?v_17) ?v_50)) (or (or ?v_90 ?v_84) ?v_62)) (or (or ?v_44 ?v_79) ?v_81)) (or (or ?v_75 ?v_82) P9)) (or (or P5 ?v_25) ?v_75)) (or (or ?v_94 ?v_33) ?v_82)) (or (or ?v_92 ?v_99) P7)) (or (or ?v_104 ?v_64) ?v_3)) (or (or ?v_89 P5) ?v_110)) (or (or ?v_38 ?v_87) ?v_102)) (or (or ?v_58 ?v_69) ?v_110)) (or (or ?v_113 ?v_82) ?v_17)) (or (or ?v_47 P8) ?v_52)) (or (or ?v_38 ?v_94) ?v_58)) (or (or ?v_45 ?v_78) ?v_93)) (or (or P3 ?v_49) ?v_118)) (or (or ?v_35 ?v_101) ?v_25)) (or (or ?v_30 ?v_47) P6)) (or (or ?v_47 ?v_69) ?v_113)) (or (or ?v_51 ?v_103) ?v_120)) (or (or ?v_93 ?v_120) ?v_81)) (or (or ?v_121 ?v_121) ?v_60)) (or (or ?v_122 ?v_85) ?v_67)) (or (or ?v_33 ?v_57) ?v_68)) (or (or ?v_81 ?v_112) P0)) (or (or ?v_30 ?v_32) ?v_7)) (or (or ?v_92 ?v_90) ?v_71)))))))))))))))))))))))))))
(check-sat)
(exit)
